(set-logic QF_LIA)
(declare-fun x () Int)
(declare-fun y () Int)
(declare-fun z () Int)
(assert (or (> (+ x 1) 0) (> (+ x y) 0)))
(assert (or (< x 0) (> (+ x y) 4)))
(assert (not (> (+ x y) 0)))
(check-sat)